Route #1: 2 45 44 58 53 6 3 32
Route #2: 25 23 39 42 63 20 57
Route #3: 52 43 49 62
Route #4: 7 31 54 41 26 1
Route #5: 17 27 34 40 38 21 8 46 30
Route #6: 16 13 56 28 11 29 33
Route #7: 47 61 50 10 12
Route #8: 24 5 4 14 59 51 55 22 18
Route #9: 48 36 60 35 15 19 9 37
Cost 861
Time 0.186404
